\ This file was automatically generated by Zimpl
\ var x1 >= 0;
\ var x2 >= 0;
\ minimize Z:     4*x1 + 12*x2;
\ subto c1:     2*x1 + 1*x2 >= 6;
\ subto c2:     1*x1 + 3*x2 <= 8;
\ subto c3:     1*x1 + 0*x2 >= 4;
\Problem name: pp
Minimize
 Z:  +4 x1 +12 x2
Subject to
 c1_1:
  + x2 +2 x1 >= 6
 c2_1:
  +3 x2 + x1 <= 8
 c3_1:
  + x1 >= 4
Bounds
 0 <= x1 <= +inf
 0 <= x2 <= +inf
End
